\ LP format - for model browsing. Use MPS format to capture full model detail.
Maximize
  - 1.0 r - 1.0 s
Subject To
 R0: - 30.0 r - 20.0 s <= -500.0
 R1: 5.0 r + 4.0 s <= 90.0
 R2: 1.0 r - 1.0 s <= 0.0
Generals
 s r
End
